certificates/rado_a10_c74_N25.cnf
c Rad2 upper bound instance: x1 + 10*x2 - x3 = 74, interval [1,25]
p cnf 25 122
1 7 8 0
-1 -7 -8 0
1 9 17 0
-1 -9 -17 0
2 8 0
-2 -8 0
2 9 18 0
-2 -9 -18 0
3 8 9 0
-3 -8 -9 0
3 9 19 0
-3 -9 -19 0
4 8 10 0
-4 -8 -10 0
4 9 20 0
-4 -9 -20 0
1 5 7 0
-1 -5 -7 0
5 8 11 0
-5 -8 -11 0
5 9 21 0
-5 -9 -21 0
2 6 7 0
-2 -6 -7 0
6 8 12 0
-6 -8 -12 0
6 9 22 0
-6 -9 -22 0
3 7 0
-3 -7 0
7 8 13 0
-7 -8 -13 0
7 9 23 0
-7 -9 -23 0
4 7 8 0
-4 -7 -8 0
8 14 0
-8 -14 0
8 9 24 0
-8 -9 -24 0
5 7 9 0
-5 -7 -9 0
8 9 15 0
-8 -9 -15 0
9 25 0
-9 -25 0
6 7 10 0
-6 -7 -10 0
8 10 16 0
-8 -10 -16 0
7 11 0
-7 -11 0
8 11 17 0
-8 -11 -17 0
7 8 12 0
-7 -8 -12 0
8 12 18 0
-8 -12 -18 0
7 9 13 0
-7 -9 -13 0
8 13 19 0
-8 -13 -19 0
7 10 14 0
-7 -10 -14 0
8 14 20 0
-8 -14 -20 0
1 6 15 0
-1 -6 -15 0
7 11 15 0
-7 -11 -15 0
8 15 21 0
-8 -15 -21 0
2 6 16 0
-2 -6 -16 0
7 12 16 0
-7 -12 -16 0
8 16 22 0
-8 -16 -22 0
3 6 17 0
-3 -6 -17 0
7 13 17 0
-7 -13 -17 0
8 17 23 0
-8 -17 -23 0
4 6 18 0
-4 -6 -18 0
7 14 18 0
-7 -14 -18 0
8 18 24 0
-8 -18 -24 0
5 6 19 0
-5 -6 -19 0
7 15 19 0
-7 -15 -19 0
8 19 25 0
-8 -19 -25 0
6 20 0
-6 -20 0
7 16 20 0
-7 -16 -20 0
6 7 21 0
-6 -7 -21 0
7 17 21 0
-7 -17 -21 0
6 8 22 0
-6 -8 -22 0
7 18 22 0
-7 -18 -22 0
6 9 23 0
-6 -9 -23 0
7 19 23 0
-7 -19 -23 0
6 10 24 0
-6 -10 -24 0
7 20 24 0
-7 -20 -24 0
1 5 25 0
-1 -5 -25 0
6 11 25 0
-6 -11 -25 0
7 21 25 0
-7 -21 -25 0
