certificates/rado_a10_c74_N25.drat
7 -25 0
-25 0
9 0
-7 0
3 0
11 0
21 0
-8 0
-19 0
-5 0
2 0
14 0
1 0
0
